
Gurobi 7.5.2 (linux64) logging started Mon Mar 26 15:01:35 2018

Academic license - for non-commercial use only

Gurobi 7.5.2 (linux64) logging started Mon Mar 26 15:07:27 2018

Academic license - for non-commercial use only

Gurobi 7.5.2 (linux64, Python) logging started Mon Mar 26 15:07:36 2018

Academic license - for non-commercial use only
